p cnf 179 334
-1 8 9 15 20 22 29 31 66 71 88 96 101 107 110 111 129 136 153 154 -155 -156 -157 -158 -159 -160 -163 -165 -166 -170 -172 -173 -174 -175 -176 -177 -178 -179 0 
-2 -3 106 154 -155 -156 -157 -158 -159 -160 -163 -165 -166 -170 -172 -173 -174 -175 -176 -177 -178 -179 0 
-4 6 11 13 21 23 25 28 42 56 61 67 72 79 81 85 120 122 123 124 125 126 133 -5 30 33 50 55 60 64 65 77 90 91 94 97 108 117 127 151 152 154 -155 -156 -157 -158 -159 -160 -163 -165 -166 -170 -172 -173 -174 -175 -176 -177 -178 -179 0 
-6 4 11 13 21 23 25 28 42 56 61 67 72 79 81 85 120 122 123 124 125 126 133 -7 155 -154 -156 -157 -158 -159 -160 -163 -165 -166 -170 -172 -173 -174 -175 -176 -177 -178 -179 0 
-8 1 9 15 20 22 29 31 66 71 88 96 101 107 110 111 129 136 153 155 -154 -156 -157 -158 -159 -160 -163 -165 -166 -170 -172 -173 -174 -175 -176 -177 -178 -179 0 
-4 6 11 13 21 23 25 28 42 56 61 67 72 79 81 85 120 122 123 124 125 126 133 -9 1 8 15 20 22 29 31 66 71 88 96 101 107 110 111 129 136 153 154 -155 -156 -157 -158 -159 -160 -163 -165 -166 -170 -172 -173 -174 -175 -176 -177 -178 -179 0 
-5 30 33 50 55 60 64 65 77 90 91 94 97 108 117 127 151 152 -6 4 11 13 21 23 25 28 42 56 61 67 72 79 81 85 120 122 123 124 125 126 133 155 -154 -156 -157 -158 -159 -160 -163 -165 -166 -170 -172 -173 -174 -175 -176 -177 -178 -179 0 
-10 19 24 32 38 41 57 62 95 100 102 119 128 138 -11 4 6 13 21 23 25 28 42 56 61 67 72 79 81 85 120 122 123 124 125 126 133 154 -155 -156 -157 -158 -159 -160 -163 -165 -166 -170 -172 -173 -174 -175 -176 -177 -178 -179 0 
-12 -1 8 9 15 20 22 29 31 66 71 88 96 101 107 110 111 129 136 153 154 -155 -156 -157 -158 -159 -160 -163 -165 -166 -170 -172 -173 -174 -175 -176 -177 -178 -179 0 
-13 4 6 11 21 23 25 28 42 56 61 67 72 79 81 85 120 122 123 124 125 126 133 -14 156 -154 -155 -157 -158 -159 -160 -163 -165 -166 -170 -172 -173 -174 -175 -176 -177 -178 -179 0 
-15 1 8 9 20 22 29 31 66 71 88 96 101 107 110 111 129 136 153 -16 40 43 80 157 -154 -155 -156 -158 -159 -160 -163 -165 -166 -170 -172 -173 -174 -175 -176 -177 -178 -179 0 
-17 37 158 -154 -155 -156 -157 -159 -160 -163 -165 -166 -170 -172 -173 -174 -175 -176 -177 -178 -179 0 
-18 -1 8 9 15 20 22 29 31 66 71 88 96 101 107 110 111 129 136 153 154 -155 -156 -157 -158 -159 -160 -163 -165 -166 -170 -172 -173 -174 -175 -176 -177 -178 -179 0 
-19 10 24 32 38 41 57 62 95 100 102 119 128 138 157 -154 -155 -156 -158 -159 -160 -163 -165 -166 -170 -172 -173 -174 -175 -176 -177 -178 -179 0 
-20 1 8 9 15 22 29 31 66 71 88 96 101 107 110 111 129 136 153 159 -154 -155 -156 -157 -158 -160 -163 -165 -166 -170 -172 -173 -174 -175 -176 -177 -178 -179 0 
-21 4 6 11 13 23 25 28 42 56 61 67 72 79 81 85 120 122 123 124 125 126 133 159 -154 -155 -156 -157 -158 -160 -163 -165 -166 -170 -172 -173 -174 -175 -176 -177 -178 -179 0 
-22 1 8 9 15 20 29 31 66 71 88 96 101 107 110 111 129 136 153 -23 4 6 11 13 21 25 28 42 56 61 67 72 79 81 85 120 122 123 124 125 126 133 160 -154 -155 -156 -157 -158 -159 -163 -165 -166 -170 -172 -173 -174 -175 -176 -177 -178 -179 0 
-24 10 19 32 38 41 57 62 95 100 102 119 128 138 -25 4 6 11 13 21 23 28 42 56 61 67 72 79 81 85 120 122 123 124 125 126 133 157 -154 -155 -156 -158 -159 -160 -163 -165 -166 -170 -172 -173 -174 -175 -176 -177 -178 -179 0 
-26 139 140 141 142 143 144 145 147 160 -154 -155 -156 -157 -158 -159 -163 -165 -166 -170 -172 -173 -174 -175 -176 -177 -178 -179 0 
-27 -28 4 6 11 13 21 23 25 42 56 61 67 72 79 81 85 120 122 123 124 125 126 133 159 -154 -155 -156 -157 -158 -160 -163 -165 -166 -170 -172 -173 -174 -175 -176 -177 -178 -179 0 
-29 1 8 9 15 20 22 31 66 71 88 96 101 107 110 111 129 136 153 154 -155 -156 -157 -158 -159 -160 -163 -165 -166 -170 -172 -173 -174 -175 -176 -177 -178 -179 0 
-30 5 33 50 55 60 64 65 77 90 91 94 97 108 117 127 151 152 154 -155 -156 -157 -158 -159 -160 -163 -165 -166 -170 -172 -173 -174 -175 -176 -177 -178 -179 0 
-31 1 8 9 15 20 22 29 66 71 88 96 101 107 110 111 129 136 153 -32 10 19 24 38 41 57 62 95 100 102 119 128 138 155 -154 -156 -157 -158 -159 -160 -163 -165 -166 -170 -172 -173 -174 -175 -176 -177 -178 -179 0 
-33 5 30 50 55 60 64 65 77 90 91 94 97 108 117 127 151 152 154 -155 -156 -157 -158 -159 -160 -163 -165 -166 -170 -172 -173 -174 -175 -176 -177 -178 -179 0 
-34 103 -35 36 158 -154 -155 -156 -157 -159 -160 -163 -165 -166 -170 -172 -173 -174 -175 -176 -177 -178 -179 0 
-17 37 161 -154 -155 -156 -157 -158 -159 -160 -163 -165 -166 -170 -172 -173 -174 -175 -176 -177 -178 -179 -35 -36 0 
-35 36 162 -17 -37 -154 -155 -156 -157 -158 -159 -160 -163 -165 -166 -170 -172 -173 -174 -175 -176 -177 -178 -179 0 
-35 36 158 -154 -155 -156 -157 -159 -160 -163 -165 -166 -170 -172 -173 -174 -175 -176 -177 -178 -179 0 
-36 35 156 -154 -155 -157 -158 -159 -160 -163 -165 -166 -170 -172 -173 -174 -175 -176 -177 -178 -179 0 
-37 17 156 -154 -155 -157 -158 -159 -160 -163 -165 -166 -170 -172 -173 -174 -175 -176 -177 -178 -179 0 
-38 10 19 24 32 41 57 62 95 100 102 119 128 138 -39 163 -154 -155 -156 -157 -158 -159 -160 -165 -166 -170 -172 -173 -174 -175 -176 -177 -178 -179 0 
-40 16 43 80 -3 106 154 -155 -156 -157 -158 -159 -160 -163 -165 -166 -170 -172 -173 -174 -175 -176 -177 -178 -179 0 
-41 10 19 24 32 38 57 62 95 100 102 119 128 138 -6 4 11 13 21 23 25 28 42 56 61 67 72 79 81 85 120 122 123 124 125 126 133 155 -154 -156 -157 -158 -159 -160 -163 -165 -166 -170 -172 -173 -174 -175 -176 -177 -178 -179 0 
-42 4 6 11 13 21 23 25 28 56 61 67 72 79 81 85 120 122 123 124 125 126 133 -9 1 8 15 20 22 29 31 66 71 88 96 101 107 110 111 129 136 153 156 -154 -155 -157 -158 -159 -160 -163 -165 -166 -170 -172 -173 -174 -175 -176 -177 -178 -179 0 
-43 16 40 80 164 -154 -155 -156 -157 -158 -159 -160 -163 -165 -166 -170 -172 -173 -174 -175 -176 -177 -178 -179 0 
-44 74 -45 149 165 -154 -155 -156 -157 -158 -159 -160 -163 -166 -170 -172 -173 -174 -175 -176 -177 -178 -179 0 
-44 74 -46 -45 149 165 -154 -155 -156 -157 -158 -159 -160 -163 -166 -170 -172 -173 -174 -175 -176 -177 -178 -179 0 
-47 134 -48 154 -155 -156 -157 -158 -159 -160 -163 -165 -166 -170 -172 -173 -174 -175 -176 -177 -178 -179 0 
-49 -50 5 30 33 55 60 64 65 77 90 91 94 97 108 117 127 151 152 166 -154 -155 -156 -157 -158 -159 -160 -163 -165 -170 -172 -173 -174 -175 -176 -177 -178 -179 0 
-50 5 30 33 55 60 64 65 77 90 91 94 97 108 117 127 151 152 166 -154 -155 -156 -157 -158 -159 -160 -163 -165 -170 -172 -173 -174 -175 -176 -177 -178 -179 0 
-51 78 86 92 154 -155 -156 -157 -158 -159 -160 -163 -165 -166 -170 -172 -173 -174 -175 -176 -177 -178 -179 0 
-52 155 -154 -156 -157 -158 -159 -160 -163 -165 -166 -170 -172 -173 -174 -175 -176 -177 -178 -179 0 
-53 -54 155 -154 -156 -157 -158 -159 -160 -163 -165 -166 -170 -172 -173 -174 -175 -176 -177 -178 -179 0 
-55 5 30 33 50 60 64 65 77 90 91 94 97 108 117 127 151 152 154 -155 -156 -157 -158 -159 -160 -163 -165 -166 -170 -172 -173 -174 -175 -176 -177 -178 -179 0 
-3 106 -56 4 6 11 13 21 23 25 28 42 61 67 72 79 81 85 120 122 123 124 125 126 133 154 -155 -156 -157 -158 -159 -160 -163 -165 -166 -170 -172 -173 -174 -175 -176 -177 -178 -179 0 
-57 10 19 24 32 38 41 62 95 100 102 119 128 138 -58 154 -155 -156 -157 -158 -159 -160 -163 -165 -166 -170 -172 -173 -174 -175 -176 -177 -178 -179 0 
-59 105 155 -154 -156 -157 -158 -159 -160 -163 -165 -166 -170 -172 -173 -174 -175 -176 -177 -178 -179 0 
-60 5 30 33 50 55 64 65 77 90 91 94 97 108 117 127 151 152 155 -154 -156 -157 -158 -159 -160 -163 -165 -166 -170 -172 -173 -174 -175 -176 -177 -178 -179 0 
-61 4 6 11 13 21 23 25 28 42 56 67 72 79 81 85 120 122 123 124 125 126 133 -62 10 19 24 32 38 41 57 95 100 102 119 128 138 163 -154 -155 -156 -157 -158 -159 -160 -165 -166 -170 -172 -173 -174 -175 -176 -177 -178 -179 0 
-12 -63 155 -154 -156 -157 -158 -159 -160 -163 -165 -166 -170 -172 -173 -174 -175 -176 -177 -178 -179 0 
-64 5 30 33 50 55 60 65 77 90 91 94 97 108 117 127 151 152 163 -154 -155 -156 -157 -158 -159 -160 -165 -166 -170 -172 -173 -174 -175 -176 -177 -178 -179 0 
-65 5 30 33 50 55 60 64 77 90 91 94 97 108 117 127 151 152 155 -154 -156 -157 -158 -159 -160 -163 -165 -166 -170 -172 -173 -174 -175 -176 -177 -178 -179 0 
-66 1 8 9 15 20 22 29 31 71 88 96 101 107 110 111 129 136 153 -67 4 6 11 13 21 23 25 28 42 56 61 72 79 81 85 120 122 123 124 125 126 133 155 -154 -156 -157 -158 -159 -160 -163 -165 -166 -170 -172 -173 -174 -175 -176 -177 -178 -179 0 
-68 155 -154 -156 -157 -158 -159 -160 -163 -165 -166 -170 -172 -173 -174 -175 -176 -177 -178 -179 0 
-69 167 -12 -154 -155 -156 -157 -158 -159 -160 -163 -165 -166 -170 -172 -173 -174 -175 -176 -177 -178 -179 0 
-70 113 154 -155 -156 -157 -158 -159 -160 -163 -165 -166 -170 -172 -173 -174 -175 -176 -177 -178 -179 0 
-71 1 8 9 15 20 22 29 31 66 88 96 101 107 110 111 129 136 153 168 -84 -154 -155 -156 -157 -158 -159 -160 -163 -165 -166 -170 -172 -173 -174 -175 -176 -177 -178 -179 0 
-72 4 6 11 13 21 23 25 28 42 56 61 67 79 81 85 120 122 123 124 125 126 133 -73 -74 44 169 -154 -155 -156 -157 -158 -159 -160 -163 -165 -166 -170 -172 -173 -174 -175 -176 -177 -178 -179 0 
-69 170 -154 -155 -156 -157 -158 -159 -160 -163 -165 -166 -172 -173 -174 -175 -176 -177 -178 -179 0 
-72 4 6 11 13 21 23 25 28 42 56 61 67 79 81 85 120 122 123 124 125 126 133 -75 130 132 -74 44 171 -154 -155 -156 -157 -158 -159 -160 -163 -165 -166 -170 -172 -173 -174 -175 -176 -177 -178 -179 0 
-76 -72 4 6 11 13 21 23 25 28 42 56 61 67 79 81 85 120 122 123 124 125 126 133 167 -12 -154 -155 -156 -157 -158 -159 -160 -163 -165 -166 -170 -172 -173 -174 -175 -176 -177 -178 -179 0 
-77 5 30 33 50 55 60 64 65 90 91 94 97 108 117 127 151 152 155 -154 -156 -157 -158 -159 -160 -163 -165 -166 -170 -172 -173 -174 -175 -176 -177 -178 -179 0 
-29 1 8 9 15 20 22 31 66 71 88 96 101 107 110 111 129 136 153 -56 4 6 11 13 21 23 25 28 42 61 67 72 79 81 85 120 122 123 124 125 126 133 154 -155 -156 -157 -158 -159 -160 -163 -165 -166 -170 -172 -173 -174 -175 -176 -177 -178 -179 0 
-9 1 8 15 20 22 29 31 66 71 88 96 101 107 110 111 129 136 153 -6 4 11 13 21 23 25 28 42 56 61 67 72 79 81 85 120 122 123 124 125 126 133 155 -154 -156 -157 -158 -159 -160 -163 -165 -166 -170 -172 -173 -174 -175 -176 -177 -178 -179 0 
-78 51 86 92 -79 4 6 11 13 21 23 25 28 42 56 61 67 72 81 85 120 122 123 124 125 126 133 159 -154 -155 -156 -157 -158 -160 -163 -165 -166 -170 -172 -173 -174 -175 -176 -177 -178 -179 0 
-80 16 40 43 -81 4 6 11 13 21 23 25 28 42 56 61 67 72 79 85 120 122 123 124 125 126 133 157 -154 -155 -156 -158 -159 -160 -163 -165 -166 -170 -172 -173 -174 -175 -176 -177 -178 -179 0 
-82 157 -154 -155 -156 -158 -159 -160 -163 -165 -166 -170 -172 -173 -174 -175 -176 -177 -178 -179 0 
-44 74 -83 165 -154 -155 -156 -157 -158 -159 -160 -163 -166 -170 -172 -173 -174 -175 -176 -177 -178 -179 0 
-84 -30 5 33 50 55 60 64 65 77 90 91 94 97 108 117 127 151 152 154 -155 -156 -157 -158 -159 -160 -163 -165 -166 -170 -172 -173 -174 -175 -176 -177 -178 -179 0 
-5 30 33 50 55 60 64 65 77 90 91 94 97 108 117 127 151 152 -85 4 6 11 13 21 23 25 28 42 56 61 67 72 79 81 120 122 123 124 125 126 133 158 -154 -155 -156 -157 -159 -160 -163 -165 -166 -170 -172 -173 -174 -175 -176 -177 -178 -179 0 
-86 51 78 92 155 -154 -156 -157 -158 -159 -160 -163 -165 -166 -170 -172 -173 -174 -175 -176 -177 -178 -179 0 
-87 172 -154 -155 -156 -157 -158 -159 -160 -163 -165 -166 -170 -173 -174 -175 -176 -177 -178 -179 0 
-88 1 8 9 15 20 22 29 31 66 71 96 101 107 110 111 129 136 153 173 -154 -155 -156 -157 -158 -159 -160 -163 -165 -166 -170 -172 -174 -175 -176 -177 -178 -179 0 
-88 1 8 9 15 20 22 29 31 66 71 96 101 107 110 111 129 136 153 -89 173 -154 -155 -156 -157 -158 -159 -160 -163 -165 -166 -170 -172 -174 -175 -176 -177 -178 -179 0 
-90 5 30 33 50 55 60 64 65 77 91 94 97 108 117 127 151 152 172 -154 -155 -156 -157 -158 -159 -160 -163 -165 -166 -170 -173 -174 -175 -176 -177 -178 -179 0 
-91 5 30 33 50 55 60 64 65 77 90 94 97 108 117 127 151 152 -6 4 11 13 21 23 25 28 42 56 61 67 72 79 81 85 120 122 123 124 125 126 133 173 -154 -155 -156 -157 -158 -159 -160 -163 -165 -166 -170 -172 -174 -175 -176 -177 -178 -179 0 
-92 51 78 86 154 -155 -156 -157 -158 -159 -160 -163 -165 -166 -170 -172 -173 -174 -175 -176 -177 -178 -179 0 
-93 174 -154 -155 -156 -157 -158 -159 -160 -163 -165 -166 -170 -172 -173 -175 -176 -177 -178 -179 0 
-93 173 -154 -155 -156 -157 -158 -159 -160 -163 -165 -166 -170 -172 -174 -175 -176 -177 -178 -179 0 
-94 5 30 33 50 55 60 64 65 77 90 91 97 108 117 127 151 152 157 -154 -155 -156 -158 -159 -160 -163 -165 -166 -170 -172 -173 -174 -175 -176 -177 -178 -179 0 
-95 10 19 24 32 38 41 57 62 100 102 119 128 138 155 -154 -156 -157 -158 -159 -160 -163 -165 -166 -170 -172 -173 -174 -175 -176 -177 -178 -179 0 
-96 1 8 9 15 20 22 29 31 66 71 88 101 107 110 111 129 136 153 157 -154 -155 -156 -158 -159 -160 -163 -165 -166 -170 -172 -173 -174 -175 -176 -177 -178 -179 0 
-97 5 30 33 50 55 60 64 65 77 90 91 94 108 117 127 151 152 155 -154 -156 -157 -158 -159 -160 -163 -165 -166 -170 -172 -173 -174 -175 -176 -177 -178 -179 0 
-98 155 -154 -156 -157 -158 -159 -160 -163 -165 -166 -170 -172 -173 -174 -175 -176 -177 -178 -179 0 
-99 157 -154 -155 -156 -158 -159 -160 -163 -165 -166 -170 -172 -173 -174 -175 -176 -177 -178 -179 0 
-100 10 19 24 32 38 41 57 62 95 102 119 128 138 157 -154 -155 -156 -158 -159 -160 -163 -165 -166 -170 -172 -173 -174 -175 -176 -177 -178 -179 0 
-101 1 8 9 15 20 22 29 31 66 71 88 96 107 110 111 129 136 153 155 -154 -156 -157 -158 -159 -160 -163 -165 -166 -170 -172 -173 -174 -175 -176 -177 -178 -179 0 
-102 10 19 24 32 38 41 57 62 95 100 119 128 138 155 -154 -156 -157 -158 -159 -160 -163 -165 -166 -170 -172 -173 -174 -175 -176 -177 -178 -179 0 
-103 34 -6 4 11 13 21 23 25 28 42 56 61 67 72 79 81 85 120 122 123 124 125 126 133 155 -154 -156 -157 -158 -159 -160 -163 -165 -166 -170 -172 -173 -174 -175 -176 -177 -178 -179 0 
-104 -29 1 8 9 15 20 22 31 66 71 88 96 101 107 110 111 129 136 153 154 -155 -156 -157 -158 -159 -160 -163 -165 -166 -170 -172 -173 -174 -175 -176 -177 -178 -179 0 
-105 59 154 -155 -156 -157 -158 -159 -160 -163 -165 -166 -170 -172 -173 -174 -175 -176 -177 -178 -179 0 
-76 -30 5 33 50 55 60 64 65 77 90 91 94 97 108 117 127 151 152 154 -155 -156 -157 -158 -159 -160 -163 -165 -166 -170 -172 -173 -174 -175 -176 -177 -178 -179 0 
-106 3 154 -155 -156 -157 -158 -159 -160 -163 -165 -166 -170 -172 -173 -174 -175 -176 -177 -178 -179 0 
-107 1 8 9 15 20 22 29 31 66 71 88 96 101 110 111 129 136 153 155 -154 -156 -157 -158 -159 -160 -163 -165 -166 -170 -172 -173 -174 -175 -176 -177 -178 -179 0 
-108 5 30 33 50 55 60 64 65 77 90 91 94 97 117 127 151 152 175 -154 -155 -156 -157 -158 -159 -160 -163 -165 -166 -170 -172 -173 -174 -176 -177 -178 -179 0 
-57 10 19 24 32 38 41 62 95 100 102 119 128 138 -30 5 33 50 55 60 64 65 77 90 91 94 97 108 117 127 151 152 154 -155 -156 -157 -158 -159 -160 -163 -165 -166 -170 -172 -173 -174 -175 -176 -177 -178 -179 0 
-31 1 8 9 15 20 22 29 66 71 88 96 101 107 110 111 129 136 153 -109 155 -154 -156 -157 -158 -159 -160 -163 -165 -166 -170 -172 -173 -174 -175 -176 -177 -178 -179 0 
-110 1 8 9 15 20 22 29 31 66 71 88 96 101 107 111 129 136 153 175 -154 -155 -156 -157 -158 -159 -160 -163 -165 -166 -170 -172 -173 -174 -176 -177 -178 -179 0 
-111 1 8 9 15 20 22 29 31 66 71 88 96 101 107 110 129 136 153 175 -154 -155 -156 -157 -158 -159 -160 -163 -165 -166 -170 -172 -173 -174 -176 -177 -178 -179 0 
-112 115 154 -155 -156 -157 -158 -159 -160 -163 -165 -166 -170 -172 -173 -174 -175 -176 -177 -178 -179 0 
-113 70 163 -154 -155 -156 -157 -158 -159 -160 -165 -166 -170 -172 -173 -174 -175 -176 -177 -178 -179 0 
-114 172 -154 -155 -156 -157 -158 -159 -160 -163 -165 -166 -170 -173 -174 -175 -176 -177 -178 -179 0 
-47 134 176 -154 -155 -156 -157 -158 -159 -160 -163 -165 -166 -170 -172 -173 -174 -175 -177 -178 -179 0 
-115 112 154 -155 -156 -157 -158 -159 -160 -163 -165 -166 -170 -172 -173 -174 -175 -176 -177 -178 -179 0 
-84 -1 8 9 15 20 22 29 31 66 71 88 96 101 107 110 111 129 136 153 154 -155 -156 -157 -158 -159 -160 -163 -165 -166 -170 -172 -173 -174 -175 -176 -177 -178 -179 0 
-63 155 -154 -156 -157 -158 -159 -160 -163 -165 -166 -170 -172 -173 -174 -175 -176 -177 -178 -179 0 
-116 118 166 -154 -155 -156 -157 -158 -159 -160 -163 -165 -170 -172 -173 -174 -175 -176 -177 -178 -179 0 
-18 -19 10 24 32 38 41 57 62 95 100 102 119 128 138 157 -154 -155 -156 -158 -159 -160 -163 -165 -166 -170 -172 -173 -174 -175 -176 -177 -178 -179 0 
-117 5 30 33 50 55 60 64 65 77 90 91 94 97 108 127 151 152 154 -155 -156 -157 -158 -159 -160 -163 -165 -166 -170 -172 -173 -174 -175 -176 -177 -178 -179 0 
-24 10 19 32 38 41 57 62 95 100 102 119 128 138 -28 4 6 11 13 21 23 25 42 56 61 67 72 79 81 85 120 122 123 124 125 126 133 159 -154 -155 -156 -157 -158 -160 -163 -165 -166 -170 -172 -173 -174 -175 -176 -177 -178 -179 0 
-76 -19 10 24 32 38 41 57 62 95 100 102 119 128 138 157 -154 -155 -156 -158 -159 -160 -163 -165 -166 -170 -172 -173 -174 -175 -176 -177 -178 -179 0 
-118 116 155 -154 -156 -157 -158 -159 -160 -163 -165 -166 -170 -172 -173 -174 -175 -176 -177 -178 -179 0 
-119 10 19 24 32 38 41 57 62 95 100 102 128 138 155 -154 -156 -157 -158 -159 -160 -163 -165 -166 -170 -172 -173 -174 -175 -176 -177 -178 -179 0 
-1 8 9 15 20 22 29 31 66 71 88 96 101 107 110 111 129 136 153 -57 10 19 24 32 38 41 62 95 100 102 119 128 138 154 -155 -156 -157 -158 -159 -160 -163 -165 -166 -170 -172 -173 -174 -175 -176 -177 -178 -179 0 
-120 4 6 11 13 21 23 25 28 42 56 61 67 72 79 81 85 122 123 124 125 126 133 -47 134 160 -154 -155 -156 -157 -158 -159 -163 -165 -166 -170 -172 -173 -174 -175 -176 -177 -178 -179 0 
-121 -122 4 6 11 13 21 23 25 28 42 56 61 67 72 79 81 85 120 123 124 125 126 133 155 -154 -156 -157 -158 -159 -160 -163 -165 -166 -170 -172 -173 -174 -175 -176 -177 -178 -179 0 
-123 4 6 11 13 21 23 25 28 42 56 61 67 72 79 81 85 120 122 124 125 126 133 155 -154 -156 -157 -158 -159 -160 -163 -165 -166 -170 -172 -173 -174 -175 -176 -177 -178 -179 0 
-124 4 6 11 13 21 23 25 28 42 56 61 67 72 79 81 85 120 122 123 125 126 133 160 -154 -155 -156 -157 -158 -159 -163 -165 -166 -170 -172 -173 -174 -175 -176 -177 -178 -179 0 
-125 4 6 11 13 21 23 25 28 42 56 61 67 72 79 81 85 120 122 123 124 126 133 155 -154 -156 -157 -158 -159 -160 -163 -165 -166 -170 -172 -173 -174 -175 -176 -177 -178 -179 0 
-23 4 6 11 13 21 25 28 42 56 61 67 72 79 81 85 120 122 123 124 125 126 133 160 -154 -155 -156 -157 -158 -159 -163 -165 -166 -170 -172 -173 -174 -175 -176 -177 -178 -179 0 
-121 -126 4 6 11 13 21 23 25 28 42 56 61 67 72 79 81 85 120 122 123 124 125 133 155 -154 -156 -157 -158 -159 -160 -163 -165 -166 -170 -172 -173 -174 -175 -176 -177 -178 -179 0 
-76 -33 5 30 50 55 60 64 65 77 90 91 94 97 108 117 127 151 152 154 -155 -156 -157 -158 -159 -160 -163 -165 -166 -170 -172 -173 -174 -175 -176 -177 -178 -179 0 
-76 -1 8 9 15 20 22 29 31 66 71 88 96 101 107 110 111 129 136 153 154 -155 -156 -157 -158 -159 -160 -163 -165 -166 -170 -172 -173 -174 -175 -176 -177 -178 -179 0 
-53 -127 5 30 33 50 55 60 64 65 77 90 91 94 97 108 117 151 152 155 -154 -156 -157 -158 -159 -160 -163 -165 -166 -170 -172 -173 -174 -175 -176 -177 -178 -179 0 
-128 10 19 24 32 38 41 57 62 95 100 102 119 138 -129 1 8 9 15 20 22 29 31 66 71 88 96 101 107 110 111 136 153 155 -154 -156 -157 -158 -159 -160 -163 -165 -166 -170 -172 -173 -174 -175 -176 -177 -178 -179 0 
-9 1 8 15 20 22 29 31 66 71 88 96 101 107 110 111 129 136 153 -85 4 6 11 13 21 23 25 28 42 56 61 67 72 79 81 120 122 123 124 125 126 133 158 -154 -155 -156 -157 -159 -160 -163 -165 -166 -170 -172 -173 -174 -175 -176 -177 -178 -179 0 
-130 75 132 157 -154 -155 -156 -158 -159 -160 -163 -165 -166 -170 -172 -173 -174 -175 -176 -177 -178 -179 0 
-131 -25 4 6 11 13 21 23 28 42 56 61 67 72 79 81 85 120 122 123 124 125 126 133 157 -154 -155 -156 -158 -159 -160 -163 -165 -166 -170 -172 -173 -174 -175 -176 -177 -178 -179 0 
-132 75 130 177 -154 -155 -156 -157 -158 -159 -160 -163 -165 -166 -170 -172 -173 -174 -175 -176 -178 -179 0 
-133 4 6 11 13 21 23 25 28 42 56 61 67 72 79 81 85 120 122 123 124 125 126 -134 47 157 -154 -155 -156 -158 -159 -160 -163 -165 -166 -170 -172 -173 -174 -175 -176 -177 -178 -179 0 
-84 -135 157 -154 -155 -156 -158 -159 -160 -163 -165 -166 -170 -172 -173 -174 -175 -176 -177 -178 -179 0 
-136 1 8 9 15 20 22 29 31 66 71 88 96 101 107 110 111 129 153 154 -155 -156 -157 -158 -159 -160 -163 -165 -166 -170 -172 -173 -174 -175 -176 -177 -178 -179 0 
-137 -50 5 30 33 55 60 64 65 77 90 91 94 97 108 117 127 151 152 166 -154 -155 -156 -157 -158 -159 -160 -163 -165 -170 -172 -173 -174 -175 -176 -177 -178 -179 0 
-138 10 19 24 32 38 41 57 62 95 100 102 119 128 155 -154 -156 -157 -158 -159 -160 -163 -165 -166 -170 -172 -173 -174 -175 -176 -177 -178 -179 0 
-139 26 140 141 142 143 144 145 147 160 -154 -155 -156 -157 -158 -159 -163 -165 -166 -170 -172 -173 -174 -175 -176 -177 -178 -179 0 
-140 26 139 141 142 143 144 145 147 155 -154 -156 -157 -158 -159 -160 -163 -165 -166 -170 -172 -173 -174 -175 -176 -177 -178 -179 0 
-141 26 139 140 142 143 144 145 147 160 -154 -155 -156 -157 -158 -159 -163 -165 -166 -170 -172 -173 -174 -175 -176 -177 -178 -179 0 
-142 26 139 140 141 143 144 145 147 155 -154 -156 -157 -158 -159 -160 -163 -165 -166 -170 -172 -173 -174 -175 -176 -177 -178 -179 0 
-143 26 139 140 141 142 144 145 147 155 -154 -156 -157 -158 -159 -160 -163 -165 -166 -170 -172 -173 -174 -175 -176 -177 -178 -179 0 
-144 26 139 140 141 142 143 145 147 160 -154 -155 -156 -157 -158 -159 -163 -165 -166 -170 -172 -173 -174 -175 -176 -177 -178 -179 0 
-145 26 139 140 141 142 143 144 147 -146 160 -154 -155 -156 -157 -158 -159 -163 -165 -166 -170 -172 -173 -174 -175 -176 -177 -178 -179 0 
-145 26 139 140 141 142 143 144 147 160 -154 -155 -156 -157 -158 -159 -163 -165 -166 -170 -172 -173 -174 -175 -176 -177 -178 -179 0 
-147 26 139 140 141 142 143 144 145 160 -154 -155 -156 -157 -158 -159 -163 -165 -166 -170 -172 -173 -174 -175 -176 -177 -178 -179 0 
-84 -27 -25 4 6 11 13 21 23 28 42 56 61 67 72 79 81 85 120 122 123 124 125 126 133 157 -154 -155 -156 -158 -159 -160 -163 -165 -166 -170 -172 -173 -174 -175 -176 -177 -178 -179 0 
-25 4 6 11 13 21 23 28 42 56 61 67 72 79 81 85 120 122 123 124 125 126 133 157 -154 -155 -156 -158 -159 -160 -163 -165 -166 -170 -172 -173 -174 -175 -176 -177 -178 -179 0 
-28 4 6 11 13 21 23 25 42 56 61 67 72 79 81 85 120 122 123 124 125 126 133 159 -154 -155 -156 -157 -158 -160 -163 -165 -166 -170 -172 -173 -174 -175 -176 -177 -178 -179 0 
-43 16 40 80 -121 157 -154 -155 -156 -158 -159 -160 -163 -165 -166 -170 -172 -173 -174 -175 -176 -177 -178 -179 0 
-148 155 -154 -156 -157 -158 -159 -160 -163 -165 -166 -170 -172 -173 -174 -175 -176 -177 -178 -179 0 
-45 149 155 -154 -156 -157 -158 -159 -160 -163 -165 -166 -170 -172 -173 -174 -175 -176 -177 -178 -179 0 
-149 45 -45 149 155 -154 -156 -157 -158 -159 -160 -163 -165 -166 -170 -172 -173 -174 -175 -176 -177 -178 -179 0 
-150 178 -154 -155 -156 -157 -158 -159 -160 -163 -165 -166 -170 -172 -173 -174 -175 -176 -177 -179 0 
-38 10 19 24 32 41 57 62 95 100 102 119 128 138 163 -154 -155 -156 -157 -158 -159 -160 -165 -166 -170 -172 -173 -174 -175 -176 -177 -178 -179 0 
-151 5 30 33 50 55 60 64 65 77 90 91 94 97 108 117 127 152 176 -154 -155 -156 -157 -158 -159 -160 -163 -165 -166 -170 -172 -173 -174 -175 -177 -178 -179 0 
-152 5 30 33 50 55 60 64 65 77 90 91 94 97 108 117 127 151 179 -154 -155 -156 -157 -158 -159 -160 -163 -165 -166 -170 -172 -173 -174 -175 -176 -177 -178 0 
-153 1 8 9 15 20 22 29 31 66 71 88 96 101 107 110 111 129 136 176 -154 -155 -156 -157 -158 -159 -160 -163 -165 -166 -170 -172 -173 -174 -175 -177 -178 -179 0 
-33 78 104 0 
-1 155 -173 0 
7 109 -138 0 
5 114 -157 0 
-20 148 -165 0 
-2 -25 -44 0 
-20 -71 131 0 
15 60 91 0 
11 -77 132 0 
-21 94 -153 0 
11 -38 -64 0 
-31 -40 82 0 
57 -60 -144 0 
80 167 -179 0 
-90 103 107 0 
7 114 -160 0 
85 152 166 0 
28 -29 -64 0 
-4 157 162 0 
76 -125 143 0 
103 -138 -149 0 
99 120 -167 0 
-49 -85 179 0 
-1 -24 178 0 
-21 69 101 0 
-27 -145 149 0 
61 -75 165 0 
-30 116 177 0 
-13 43 172 0 
-68 98 108 0 
16 -52 84 0 
-70 -78 -157 0 
71 -89 -149 0 
-19 -123 125 0 
39 -157 -157 0 
-119 130 167 0 
-42 -93 -164 0 
20 -73 103 0 
-51 74 -173 0 
15 -38 123 0 
-81 94 -144 0 
-50 -90 145 0 
35 -40 79 0 
-2 100 -179 0 
23 -59 -94 0 
-32 157 -178 0 
-75 154 -179 0 
31 -45 -155 0 
91 95 161 0 
27 -144 -158 0 
22 -141 159 0 
-55 -117 143 0 
75 -110 -169 0 
58 114 -158 0 
5 -80 98 0 
-67 -89 148 0 
-1 46 104 0 
26 76 -135 0 
-52 -80 -154 0 
-27 -73 172 0 
16 -18 151 0 
122 161 179 0 
-50 64 -115 0 
-60 -98 -111 0 
-50 -107 163 0 
-43 -117 120 0 
86 115 172 0 
49 79 96 0 
-5 -54 -62 0 
-27 47 -100 0 
28 57 -126 0 
-18 -119 -137 0 
77 108 161 0 
-38 -92 -114 0 
12 39 96 0 
-77 -114 155 0 
-12 13 157 0 
86 94 -102 0 
-73 -92 -125 0 
14 24 38 0 
128 -154 -162 0 
25 132 136 0 
-80 -96 157 0 
25 54 -63 0 
-36 -126 -168 0 
-2 19 177 0 
-40 117 127 0 
-38 94 100 0 
26 -28 97 0 
65 76 -135 0 
9 -34 -109 0 
-33 -135 -150 0 
57 116 -160 0 
-8 -19 -28 0 
51 105 113 0 
-36 -127 -147 0 
-8 91 173 0 
13 15 18 0 
45 46 -132 0 
-42 112 -168 0 
-75 -76 -178 0 
40 -45 -170 0 
-53 82 98 0 
31 133 167 0 
28 -82 116 0 
2 149 168 0 
15 86 -110 0 
-62 137 -168 0 
-129 -134 -152 0 
33 -96 159 0 
102 125 155 0 
65 -146 150 0 
12 -55 179 0 
78 135 -165 0 
-119 -146 -155 0 
-14 -49 -55 0 
-33 45 84 0 
-17 -31 -113 0 
-48 87 -94 0 
-25 135 -138 0 
8 -58 -92 0 
66 -86 -160 0 
-14 -90 -165 0 
9 75 86 0 
-34 116 -176 0 
-71 -115 -140 0 
-10 164 -164 0 
-7 -45 159 0 
-5 -9 154 0 
7 -16 40 0 
55 88 176 0 
40 -62 -138 0 
23 -87 146 0 
-55 86 -167 0 
13 -114 145 0 
35 67 -104 0 
-10 69 101 0 
20 -121 -168 0 
47 104 -174 0 
-55 -111 -173 0 
104 104 160 0 
44 77 -83 0 
-21 -59 150 0 
-124 -134 153 0 
47 -71 153 0 
113 119 -146 0 
38 142 149 0 
74 117 166 0 
-1 6 177 0 
5 98 -166 0 
47 -61 146 0 
-32 37 -124 0 
-47 -59 -115 0 
-56 101 -132 0 
-40 76 -146 0 
36 105 146 0 
13 26 -59 0 
14 35 90 0 
52 72 166 0 
-21 -133 162 0 
37 75 -128 0 
-5 -80 -135 0 
-18 -24 -159 0 
20 41 -44 0 
129 165 -165 0 
22 113 -131 0 
-20 85 109 0 
-39 -77 131 0 
46 -73 -113 0 
-47 139 141 0 
62 90 -150 0 
17 -115 -153 0 
84 130 175 0 
26 -48 98 0 
-7 8 56 0 
-82 139 153 0 
8 37 -136 0 
-98 126 -177 0 
75 101 174 0 
